5 5
0 56 3 52 1 3 2 23 4 17
2 71 4 26 0 18 1 46 3 70
4 31 3 93 2 9 0 35 1 81
4 60 2 76 1 63 3 52 0 48
1 61 2 24 3 74 4 58 0 64
-1
0 1 3 4 5
0 1 5
0 2 3 4 5
0 1 5
0 1 2 3 5
-2
73 166 194 197
85 239
139 175 188 267
64 437
81 127 227 303

372 9
0 13 7 24 19
20 17 8 2 14
5 21 16 12 3
11 22 1 18 9
10 15 6 23 4
